c Graph 1
p edge 5 0
c Graph 2
p edge 5 1
e 1 5
c Graph 3
p edge 5 2
e 1 5
e 2 5
c Graph 4
p edge 5 3
e 1 5
e 2 5
e 3 5
c Graph 5
p edge 5 4
e 1 5
e 2 5
e 3 5
e 4 5
c Graph 6
p edge 5 2
e 1 4
e 2 5
c Graph 7
p edge 5 3
e 1 4
e 2 5
e 3 5
c Graph 8
p edge 5 3
e 1 4
e 1 5
e 4 5
c Graph 9
p edge 5 3
e 1 4
e 1 5
e 2 5
c Graph 10
p edge 5 4
e 1 4
e 1 5
e 2 5
e 4 5
c Graph 11
p edge 5 4
e 1 4
e 1 5
e 2 5
e 3 5
c Graph 12
p edge 5 5
e 1 4
e 1 5
e 2 5
e 3 5
e 4 5
c Graph 13
p edge 5 5
e 1 4
e 1 5
e 2 4
e 3 5
e 4 5
c Graph 14
p edge 5 4
e 1 4
e 1 5
e 2 4
e 2 5
c Graph 15
p edge 5 5
e 1 4
e 1 5
e 2 4
e 2 5
e 4 5
c Graph 16
p edge 5 5
e 1 4
e 1 5
e 2 4
e 2 5
e 3 5
c Graph 17
p edge 5 6
e 1 4
e 1 5
e 2 4
e 2 5
e 3 5
e 4 5
c Graph 18
p edge 5 6
e 1 4
e 1 5
e 2 4
e 2 5
e 3 4
e 3 5
c Graph 19
p edge 5 7
e 1 4
e 1 5
e 2 4
e 2 5
e 3 4
e 3 5
e 4 5
c Graph 20
p edge 5 4
e 1 3
e 1 5
e 2 4
e 3 5
c Graph 21
p edge 5 4
e 1 3
e 1 5
e 2 4
e 2 5
c Graph 22
p edge 5 5
e 1 3
e 1 5
e 2 4
e 2 5
e 3 5
c Graph 23
p edge 5 6
e 1 3
e 1 5
e 2 4
e 2 5
e 3 5
e 4 5
c Graph 24
p edge 5 6
e 1 3
e 1 4
e 1 5
e 3 4
e 3 5
e 4 5
c Graph 25
p edge 5 6
e 1 3
e 1 4
e 1 5
e 2 5
e 3 4
e 3 5
c Graph 26
p edge 5 7
e 1 3
e 1 4
e 1 5
e 2 5
e 3 4
e 3 5
e 4 5
c Graph 27
p edge 5 5
e 1 3
e 1 4
e 2 4
e 2 5
e 3 5
c Graph 28
p edge 5 6
e 1 3
e 1 4
e 1 5
e 2 4
e 2 5
e 3 5
c Graph 29
p edge 5 7
e 1 3
e 1 4
e 1 5
e 2 4
e 2 5
e 3 5
e 4 5
c Graph 30
p edge 5 8
e 1 3
e 1 4
e 1 5
e 2 4
e 2 5
e 3 4
e 3 5
e 4 5
c Graph 31
p edge 5 7
e 1 3
e 1 4
e 1 5
e 2 3
e 2 4
e 2 5
e 3 5
c Graph 32
p edge 5 8
e 1 3
e 1 4
e 1 5
e 2 3
e 2 4
e 2 5
e 3 5
e 4 5
c Graph 33
p edge 5 9
e 1 3
e 1 4
e 1 5
e 2 3
e 2 4
e 2 5
e 3 4
e 3 5
e 4 5
c Graph 34
p edge 5 10
e 1 2
e 1 3
e 1 4
e 1 5
e 2 3
e 2 4
e 2 5
e 3 4
e 3 5
e 4 5
